NAME : LRC2_6_7
TYPE : PDPTW
DIMENSION : 150
EDGE_WEIGHT_TYPE : EXACT_2D
NODE_COORD_SECTION
1 1 0
2 150 0
3 0 0
4 -14 3380
5 0 2
6 135 645
7 3 199
8 2366 10
9 61 84
10 10 358
11 103 -30
12 438 0
13 10 105
14 553 7
15 2489 2791
16 8 230
17 1822 10
18 55 68
19 10 0
20 180 27
21 0 125
22 -20 1221
23 0 12
24 740 889
25 13 257
26 978 10
27 57 155
28 10 211
29 26 -10
30 347 0
31 10 361
32 545 17
33 911 1025
34 18 89
35 1156 10
36 84 231
37 10 122
38 240 17
39 0 45
40 20 585
41 562 22
42 368 859
43 23 180
44 298 10
45 240 73
46 10 161
47 265 -10
48 221 0
49 20 240
50 426 27
51 685 827
52 28 160
53 475 10
54 289 130
55 10 0
56 255 5
57 0 265
58 -20 1340
59 0 32
60 2242 2533
61 33 115
62 740 10
63 250 228
64 10 0
65 89 22
66 0 609
67 20 82
68 215 37
69 33 349
70 38 159
71 773 10
72 47 277
73 10 0
74 269 -16
75 193 0
76 -10 771
77 0 42
78 472 702
79 43 74
80 3486 10
81 140 140
82 10 0
83 241 -17
84 20 0
85 -20 164
86 0 47
87 159 491
88 48 136
89 2601 10
90 250 124
91 10 409
92 299 24
93 0 537
94 -16 747
95 0 52
96 213 733
97 53 212
98 941 10
99 259 59
100 10 0
101 104 21
102 0 597
103 20 390
104 230 57
105 2416 2740
106 58 57
107 1072 10
108 232 121
109 10 0
110 132 10
111 0 280
112 -20 1322
113 0 62
114 419 883
115 63 143
116 383 10
117 248 41
118 10 137
119 263 -10
120 33 0
121 20 142
122 88 67
123 364 661
124 68 259
125 1408 10
126 38 139
127 10 0
128 41 14
129 0 595
130 -20 463
131 0 72
132 871 980
133 73 102
134 3554 10
135 43 286
136 10 540
137 160 20
138 0 113
139 13 484
140 117 77
141 685 1059
142 78 88
143 2779 10
144 122 127
145 10 0
146 63 10
147 0 602
148 16 135
149 100 82
150 2271 2972
PICKUP_AND_DELIVERY_SECTION
1 0 0 0 0 0 0
2 0 0 0 0 4823 0
3 0 0 0 0 0 125
4 0 0 0 0 10 10
5 0 0 0 0 107 107
6 0 0 0 0 0 0
7 0 0 0 0 -42 -42
8 0 0 0 0 0 0
9 0 0 0 0 1303 1303
10 0 0 0 0 5 0
11 0 0 0 0 522 522
12 0 0 0 0 143 143
13 0 0 0 0 10 10
14 0 0 0 0 141 141
15 0 0 0 0 311 311
16 0 0 0 0 -10 -10
17 0 0 0 0 0 0
18 0 0 0 0 468 468
19 0 0 0 0 10 10
20 0 0 0 0 1881 1881
21 0 0 0 0 159 159
22 0 0 0 0 10 10
23 0 0 0 0 4 4
24 0 0 0 0 44 44
25 0 0 0 0 10 10
26 0 0 0 0 556 0
27 0 0 0 0 325 325
28 0 0 0 0 15 0
29 0 0 0 0 2476 2476
30 0 0 0 0 231 231
31 0 0 0 0 10 10
32 0 0 0 0 132 132
33 0 0 0 0 0 0
34 0 0 0 0 14 14
35 0 0 0 0 304 0
36 0 0 0 0 2207 2207
37 0 0 0 0 20 0
38 0 0 0 0 2435 2435
39 0 0 0 0 110 110
40 0 0 0 0 10 10
41 0 0 0 0 74 74
42 0 0 0 0 283 283
43 0 0 0 0 19 19
44 0 0 0 0 523 0
45 0 0 0 0 398 398
46 0 0 0 0 25 0
47 0 0 0 0 958 958
48 0 0 0 0 134 134
49 0 0 0 0 10 10
50 0 0 0 0 59 59
51 0 0 0 0 0 0
52 0 0 0 0 10 10
53 0 0 0 0 247 0
54 0 0 0 0 1229 1229
55 0 0 0 0 30 30
56 0 0 0 0 1250 1250
57 0 0 0 0 234 234
58 0 0 0 0 10 10
59 0 0 0 0 208 208
60 0 0 0 0 0 0
61 0 0 0 0 10 10
62 0 0 0 0 65 0
63 0 0 0 0 3039 3039
64 0 0 0 0 35 35
65 0 0 0 0 3457 3457
66 0 0 0 0 105 105
67 0 0 0 0 10 10
68 0 0 0 0 183 183
69 0 0 0 0 487 487
70 0 0 0 0 -7 -7
71 0 0 0 0 0 0
72 0 0 0 0 383 383
73 0 0 0 0 40 40
74 0 0 0 0 2032 2032
75 0 0 0 0 212 212
76 0 0 0 0 10 10
77 0 0 0 0 149 149
78 0 0 0 0 0 0
79 0 0 0 0 -20 -20
80 0 0 0 0 0 0
81 0 0 0 0 14 14
82 0 0 0 0 45 45
83 0 0 0 0 3134 3134
84 0 0 0 0 222 222
85 0 0 0 0 10 10
86 0 0 0 0 124 124
87 0 0 0 0 202 202
88 0 0 0 0 -10 -10
89 0 0 0 0 0 0
90 0 0 0 0 379 379
91 0 0 0 0 50 0
92 0 0 0 0 1579 1579
93 0 0 0 0 258 258
94 0 0 0 0 10 10
95 0 0 0 0 47 47
96 0 0 0 0 0 0
97 0 0 0 0 20 20
98 0 0 0 0 11 0
99 0 0 0 0 667 667
100 0 0 0 0 55 55
101 0 0 0 0 484 484
102 0 0 0 0 77 77
103 0 0 0 0 10 10
104 0 0 0 0 45 45
105 0 0 0 0 536 536
106 0 0 0 0 23 23
107 0 0 0 0 232 0
108 0 0 0 0 2083 2083
109 0 0 0 0 60 60
110 0 0 0 0 849 849
111 0 0 0 0 18 18
112 0 0 0 0 10 10
113 0 0 0 0 113 113
114 0 0 0 0 0 0
115 0 0 0 0 20 20
116 0 0 0 0 339 0
117 0 0 0 0 1768 1768
118 0 0 0 0 65 0
119 0 0 0 0 1063 1063
120 0 0 0 0 109 109
121 0 0 0 0 10 10
122 0 0 0 0 71 71
123 0 0 0 0 363 363
124 0 0 0 0 -10 -10
125 0 0 0 0 0 0
126 0 0 0 0 1316 1316
127 0 0 0 0 70 70
128 0 0 0 0 1582 1582
129 0 0 0 0 255 255
130 0 0 0 0 10 10
131 0 0 0 0 122 122
132 0 0 0 0 0 0
133 0 0 0 0 -20 -20
134 0 0 0 0 0 0
135 0 0 0 0 489 489
136 0 0 0 0 75 0
137 0 0 0 0 658 658
138 0 0 0 0 172 172
139 0 0 0 0 10 10
140 0 0 0 0 22 22
141 0 0 0 0 0 0
142 0 0 0 0 -20 -20
143 0 0 0 0 0 0
144 0 0 0 0 0 36
145 0 0 0 0 80 80
146 0 0 0 0 1042 1042
147 0 0 0 0 53 53
148 0 0 0 0 10 10
149 0 0 0 0 281 281
150 0 0 0 0 72 72
DEPOT_SECTION
1 
-1
EOF
